[[58, 59, 60, 49, 51, 50, 40, 39, 48, 47, 46, 38, 29, 37, 28, 30, 31, 19, 20, 21, 22, 23, 13, 12, 11, 10, 2, 3, 4, 5, 14, 15, 6, 7, 8, 9, 18, 17, 16, 24, 25, 26, 27, 35, 36, 34, 32, 33, 41, 42, 43, 44, 45], [52, 53, 54, 63, 62, 61, 72, 71, 81, 80, 70, 69, 78, 79, 88, 89, 90, 99, 98, 97, 96, 87, 95, 86, 85, 94, 93, 92, 91, 83, 82, 73, 84, 75, 76, 77, 68, 67, 66, 74, 65, 64, 55, 56, 57]]